83-47-65-43-62-50-15-8-77-81-6-25-60-31-23-45-28-36-17-48-92-3-11-39-52-0-84-26-14-12-78-63-19-41-54-66-46-30-64-79-76-29-67-1-34-22-49-71-82-61-53-5-74-21-7-16-24-89-33-57-97-87-27-38-37-70-55-42-4-85-94-93-90-75-69-20-88-40-58-72-2-68-59-13-98-18-91-9-35-56-73-99-32-44-80-96-95-86-51-10 21297